4559477.0
1103
0 1 2 7 9 10 11 12 16 19 21 23 30 32 35 36 39 41 42 43 44 46 48 49 50 51 57 58 60 61 63 65 67 71 75 78 79 82 83 84 87 93 98 101 103 107 108 111 115 117 119 121 122 123 130 131 132 133 134 135 136 137 138 142 145 146 149 150 153 155 157 162 163 164 166 167 168 169 171 176 178 181 183 185 187 188 191 193 195 196 